
Gurobi 10.0.1 (linux64) logging started Sun Nov 26 15:37:39 2023

Set parameter LogFile to value "ArtificialInstance/ExperimentV2/S4T4K2/AdSp/gurobiDoSp1.txt"
Gurobi Optimizer version 10.0.1 build v10.0.1rc0 (linux64)

CPU model: AMD EPYC 7H12 64-Core Processor, instruction set [SSE2|AVX|AVX2]
Thread count: 128 physical cores, 128 logical processors, using up to 32 threads

Academic license 656792 - for non-commercial use only - registered to b.___@student.vu.nl
Optimize a model with 11350 rows, 10815 columns and 41365 nonzeros
Model fingerprint: 0xfc67cca2
Variable types: 0 continuous, 10815 integer (10815 binary)
Coefficient statistics:
  Matrix range     [1e+00, 1e+00]
  Objective range  [9e-01, 2e+01]
  Bounds range     [1e+00, 1e+00]
  RHS range        [1e+00, 1e+00]
Presolve removed 9520 rows and 9083 columns
Presolve time: 0.20s
Presolved: 1830 rows, 1732 columns, 6832 nonzeros
Variable types: 0 continuous, 1732 integer (1732 binary)

Root relaxation: objective 7.688292e+01, 641 iterations, 0.01 seconds (0.01 work units)

    Nodes    |    Current Node    |     Objective Bounds      |     Work
 Expl Unexpl |  Obj  Depth IntInf | Incumbent    BestBd   Gap | It/Node Time

*    0     0               0      76.8829183   76.88292  0.00%     -    0s

Explored 1 nodes (641 simplex iterations) in 0.25 seconds (0.16 work units)
Thread count was 32 (of 128 available processors)

Solution count 1: 76.8829 

Optimal solution found (tolerance 1.00e-04)
Best objective 7.688291834074e+01, best bound 7.688291834074e+01, gap 0.0000%
